sat
(
  (define-fun MemProv4 () Int
    7500)
  (define-fun MemProv2 () Int
    3750)
  (define-fun C2_VM3 () Int
    0)
  (define-fun C1_VM3 () Int
    0)
  (define-fun ProcProv4 () Int
    4)
  (define-fun C2_VM1 () Int
    0)
  (define-fun StorageProv4 () Int
    2000)
  (define-fun PriceProv2 () Int
    128)
  (define-fun PriceProv1 () Int
    252)
  (define-fun C2_VM2 () Int
    1)
  (define-fun ProcProv3 () Int
    4)
  (define-fun C1_VM4 () Int
    1)
  (define-fun C5_VM5 () Int
    0)
  (define-fun PriceProv4 () Int
    252)
  (define-fun C1_VM2 () Int
    0)
  (define-fun C3_VM5 () Int
    0)
  (define-fun C5_VM3 () Int
    0)
  (define-fun C2_VM4 () Int
    0)
  (define-fun ProcProv5 () Int
    2)
  (define-fun C4_VM4 () Int
    0)
  (define-fun C2_VM5 () Int
    0)
  (define-fun C3_VM2 () Int
    0)
  (define-fun VM1Type () Int
    26)
  (define-fun C3_VM3 () Int
    1)
  (define-fun VM2Type () Int
    37)
  (define-fun ProcProv2 () Int
    2)
  (define-fun C5_VM2 () Int
    0)
  (define-fun C4_VM1 () Int
    0)
  (define-fun MemProv1 () Int
    7500)
  (define-fun MemProv5 () Int
    3750)
  (define-fun StorageProv2 () Int
    2000)
  (define-fun C1_VM5 () Int
    0)
  (define-fun StorageProv5 () Int
    2000)
  (define-fun C4_VM5 () Int
    1)
  (define-fun C5_VM4 () Int
    0)
  (define-fun ProcProv1 () Int
    4)
  (define-fun VM3Type () Int
    26)
  (define-fun C3_VM4 () Int
    0)
  (define-fun StorageProv3 () Int
    2000)
  (define-fun MemProv3 () Int
    7500)
  (define-fun PriceProv5 () Int
    128)
  (define-fun PriceProv3 () Int
    252)
  (define-fun VM4Type () Int
    26)
  (define-fun StorageProv1 () Int
    2000)
  (define-fun C4_VM3 () Int
    0)
  (define-fun C4_VM2 () Int
    0)
  (define-fun C3_VM1 () Int
    0)
  (define-fun VM5Type () Int
    37)
  (define-fun C5_VM1 () Int
    1)
  (define-fun C1_VM1 () Int
    0)
)
(objectives
 ( 17)
 ((+ 0 PriceProv1 PriceProv2 PriceProv3 PriceProv4 PriceProv5) 1012)
)
(:added-eqs                   118809
 :arith-eq-adapter            34333
 :arith-bound-propagations-lp 1031
 :arith-conflicts             52
 :arith-diseq                 127569
 :arith-fixed-eqs             2288
 :arith-lower                 134360
 :arith-make-feasible         26668
 :arith-max-columns           134
 :arith-max-rows              17
 :arith-upper                 149543
 :binary-propagations         654352
 :conflicts                   3058
 :decisions                   73572
 :del-clause                  31107
 :final-checks                88
 :max-memory                  43.40
 :maxsat-cores                9
 :memory                      43.40
 :minimized-lits              26114
 :mk-bool-var                 64543
 :mk-clause                   32303
 :mk-clause-binary            3544
 :num-allocs                  101669860
 :num-checks                  108
 :pb-conflicts                1746
 :pb-predicates               384
 :pb-propagations             3003
 :pb-resolves                 1740
 :propagations                928151
 :restarts                    12
 :rlimit-count                6328196
 :solve-eqs-elim-vars         2
 :solve-eqs-steps             16
 :time                        0.37
 :total-time                  0.37)
